outputs/case_476.model.txt
violate_law_or_related_regulations = True
affect_normal_business_execution = False
remove_duty_ordered_flag = True
stop_business_within_one_year_ordered = True
penalty_according_to_article_66 = False
stop_business_ordered = False
penalty_imposed = False
remove_duty_ordered = False
penalty = False
violation_found = False